data;
set K:= K1 K2 K3 K4 K5 K6 K7 K8 K9 K10 ;

set F:= F1 F2 F3 ;

set Q:= Q1 Q2 ;

param T:= 45;
param V: 
	K1  K2  K3  K4  K5  K6  K7  K8  K9  K10 :=
Q1	1   1   1   1   1   1   0   0   0   0   
Q2	0   0   0   0   0   0   1   1   1   1   
; # if resorce k is of type q

param TF:= 
K1 6
K2 6
K3 6
K4 6
K5 6
K6 6
K7 12
K8 12
K9 12
K10 12
; # number of continuous time slots resource can fly

param TR:= 
K1 2
K2 2
K3 2
K4 2
K5 2
K6 2
K7 4
K8 4
K9 4
K10 4
; #  number of continuous time slots resource k needs to rest between flights

param P:= 
K1 36
K2 36
K3 36
K4 36
K5 36
K6 36
K7 36
K8 36
K9 36
K10 36
; #  number of continuous time slots a pilot can be present including rest times for resource k 

param N:= 
K1 4
K2 4
K3 4
K4 4
K5 4
K6 4
K7 1
K8 2
K9 2
K10 2
; # max number of flights resource k can fly in the total time period

param A: 
	K1  K2  K3  K4  K5  K6  K7  K8  K9  K10 :=
1	1   1   1   1   1   1   0   1   1   1   
2	1   1   1   1   1   1   0   1   1   1   
3	1   1   1   1   1   1   0   1   1   1   
4	1   1   1   1   1   1   0   1   1   1   
5	1   1   1   1   1   1   0   1   1   1   
6	1   1   1   1   1   1   0   1   1   1   
7	1   1   1   1   1   1   0   1   1   1   
8	1   1   1   1   1   1   0   1   1   1   
9	1   1   1   1   1   1   0   1   1   1   
10	1   1   1   1   1   1   0   1   1   1   
11	1   1   1   1   1   1   0   1   1   1   
12	1   1   1   1   1   1   0   1   1   1   
13	1   1   1   1   1   1   0   1   1   1   
14	1   1   1   1   1   1   0   1   1   1   
15	1   1   1   1   1   1   0   1   1   1   
16	1   1   1   1   1   1   0   1   1   1   
17	1   1   1   1   1   1   0   1   1   1   
18	1   1   1   1   1   1   0   1   1   1   
19	1   1   1   1   1   1   1   1   1   1   
20	1   1   1   1   1   1   1   1   1   1   
21	1   1   1   1   1   1   1   1   1   1   
22	1   1   1   1   1   1   1   1   1   1   
23	1   1   1   1   1   1   1   1   1   1   
24	1   1   1   1   1   1   1   1   1   1   
25	1   1   1   1   1   1   1   1   1   1   
26	1   1   1   1   1   1   1   1   1   1   
27	1   1   1   1   1   1   1   1   1   1   
28	1   1   1   1   1   1   1   1   1   1   
29	1   1   1   1   1   1   1   1   1   1   
30	1   1   1   1   1   1   1   1   1   1   
31	1   1   1   1   1   1   1   1   1   1   
32	1   1   1   1   1   1   1   1   1   1   
33	1   1   1   1   1   1   1   1   1   1   
34	1   1   1   1   1   1   1   1   1   1   
35	1   1   1   1   1   1   1   1   1   1   
36	1   1   1   1   1   1   1   1   1   1   
37	1   1   1   1   1   1   1   1   1   1   
38	1   1   1   1   1   1   1   1   1   1   
39	1   1   1   1   1   1   1   1   1   1   
40	1   1   1   1   1   1   1   1   1   1   
41	1   1   1   1   1   1   1   1   1   1   
42	1   1   1   1   1   1   1   1   1   1   
43	1   1   1   1   1   1   1   1   1   1   
44	1   1   1   1   1   1   1   1   1   1   
45	1   1   1   1   1   1   1   1   1   1   
; # availability of resorce k in time slot t

param B: 
	F1  F2  F3  :=
Q1	0   0   1   
Q2	0   0   0   
; # if front f requires resources of type q

param U: 
	F1  F2  F3  :=
K1	0   0   0   
K2	0   0   0   
K3	0   0   0   
K4	0   0   0   
K5	0   0   0   
K6	0   0   0   
K7	2   2   2   
K8	1   1   1   
K9	0   0   0   
K10	2   2   2   
; # transit time of resource

param C:= 
K1 900
K2 900
K3 900
K4 1500
K5 4500
K6 2100
K7 5500
K8 5500
K9 5500
K10 5500
; #  water capacity of resource k

param S:= 
F1 9
F2 9
F3 9
; # max number of resources that can fly at front f in the same time slot

param D:= 

[*,*,F1 ]:  K1    K2    K3    K4    K5    K6    K7    K8    K9    K10   :=
1           1.99  1.99  1.99  1.99  1.58  1.99  1.19  1.19  1.19  1.19  
2           1.99  1.99  1.99  1.99  1.58  1.99  1.19  1.19  1.19  1.19  
3           1.99  1.99  1.99  1.99  1.58  1.99  1.19  1.19  1.19  1.19  
4           1.99  1.99  1.99  1.99  1.58  1.99  1.19  1.19  1.19  1.19  
5           1.99  1.99  1.99  1.99  1.58  1.99  1.19  1.19  1.19  1.19  
6           1.99  1.99  1.99  1.99  1.58  1.99  1.19  1.19  1.19  1.19  
7           1.99  1.99  1.99  1.99  1.58  1.99  1.19  1.19  1.19  1.19  
8           1.99  1.99  1.99  1.99  1.58  1.99  1.19  1.19  1.19  1.19  
9           1.99  1.99  1.99  1.99  1.58  1.99  1.19  1.19  1.19  1.19  
10          1.99  1.99  1.99  1.99  1.58  1.99  1.19  1.19  1.19  1.19  
11          1.99  1.99  1.99  1.99  1.58  1.99  1.19  1.19  1.19  1.19  
12          1.99  1.99  1.99  1.99  1.58  1.99  1.19  1.19  1.19  1.19  
13          1.99  1.99  1.99  1.99  1.58  1.99  1.19  1.19  1.19  1.19  
14          1.99  1.99  1.99  1.99  1.58  1.99  1.19  1.19  1.19  1.19  
15          1.99  1.99  1.99  1.99  1.58  1.99  1.19  1.19  1.19  1.19  
16          1.99  1.99  1.99  1.99  1.58  1.99  1.19  1.19  1.19  1.19  
17          1.99  1.99  1.99  1.99  1.58  1.99  1.19  1.19  1.19  1.19  
18          1.99  1.99  1.99  1.99  1.58  1.99  1.19  1.19  1.19  1.19  
19          1.99  1.99  1.99  1.99  1.58  1.99  1.19  1.19  1.19  1.19  
20          1.99  1.99  1.99  1.99  1.58  1.99  1.19  1.19  1.19  1.19  
21          1.99  1.99  1.99  1.99  1.58  1.99  1.19  1.19  1.19  1.19  
22          1.99  1.99  1.99  1.99  1.58  1.99  1.19  1.19  1.19  1.19  
23          1.99  1.99  1.99  1.99  1.58  1.99  1.19  1.19  1.19  1.19  
24          1.99  1.99  1.99  1.99  1.58  1.99  1.19  1.19  1.19  1.19  
25          1.89  1.89  1.89  1.89  1.50  1.89  1.13  1.13  1.13  1.13  
26          1.89  1.89  1.89  1.89  1.50  1.89  1.13  1.13  1.13  1.13  
27          1.89  1.89  1.89  1.89  1.50  1.89  1.13  1.13  1.13  1.13  
28          1.89  1.89  1.89  1.89  1.50  1.89  1.13  1.13  1.13  1.13  
29          1.89  1.89  1.89  1.89  1.50  1.89  1.13  1.13  1.13  1.13  
30          1.89  1.89  1.89  1.89  1.50  1.89  1.13  1.13  1.13  1.13  
31          1.89  1.89  1.89  1.89  1.50  1.89  1.13  1.13  1.13  1.13  
32          1.89  1.89  1.89  1.89  1.50  1.89  1.13  1.13  1.13  1.13  
33          1.89  1.89  1.89  1.89  1.50  1.89  1.13  1.13  1.13  1.13  
34          1.99  1.99  1.99  1.99  1.58  1.99  1.19  1.19  1.19  1.19  
35          1.99  1.99  1.99  1.99  1.58  1.99  1.19  1.19  1.19  1.19  
36          1.99  1.99  1.99  1.99  1.58  1.99  1.19  1.19  1.19  1.19  
37          1.99  1.99  1.99  1.99  1.58  1.99  1.19  1.19  1.19  1.19  
38          1.99  1.99  1.99  1.99  1.58  1.99  1.19  1.19  1.19  1.19  
39          1.99  1.99  1.99  1.99  1.58  1.99  1.19  1.19  1.19  1.19  
40          1.99  1.99  1.99  1.99  1.58  1.99  1.19  1.19  1.19  1.19  
41          1.99  1.99  1.99  1.99  1.58  1.99  1.19  1.19  1.19  1.19  
42          1.99  1.99  1.99  1.99  1.58  1.99  1.19  1.19  1.19  1.19  
43          1.99  1.99  1.99  1.99  1.58  1.99  1.19  1.19  1.19  1.19  
44          1.99  1.99  1.99  1.99  1.58  1.99  1.19  1.19  1.19  1.19  
45          1.99  1.99  1.99  1.99  1.58  1.99  1.19  1.19  1.19  1.19  

[*,*,F2 ]:  K1    K2    K3    K4    K5    K6    K7    K8    K9    K10   :=
1           1.59  1.59  1.59  1.59  1.26  1.59  0.95  0.95  0.95  0.95  
2           1.59  1.59  1.59  1.59  1.26  1.59  0.95  0.95  0.95  0.95  
3           1.59  1.59  1.59  1.59  1.26  1.59  0.95  0.95  0.95  0.95  
4           1.59  1.59  1.59  1.59  1.26  1.59  0.95  0.95  0.95  0.95  
5           1.59  1.59  1.59  1.59  1.26  1.59  0.95  0.95  0.95  0.95  
6           1.59  1.59  1.59  1.59  1.26  1.59  0.95  0.95  0.95  0.95  
7           1.59  1.59  1.59  1.59  1.26  1.59  0.95  0.95  0.95  0.95  
8           1.59  1.59  1.59  1.59  1.26  1.59  0.95  0.95  0.95  0.95  
9           1.59  1.59  1.59  1.59  1.26  1.59  0.95  0.95  0.95  0.95  
10          1.59  1.59  1.59  1.59  1.26  1.59  0.95  0.95  0.95  0.95  
11          1.59  1.59  1.59  1.59  1.26  1.59  0.95  0.95  0.95  0.95  
12          1.59  1.59  1.59  1.59  1.26  1.59  0.95  0.95  0.95  0.95  
13          1.59  1.59  1.59  1.59  1.26  1.59  0.95  0.95  0.95  0.95  
14          1.59  1.59  1.59  1.59  1.26  1.59  0.95  0.95  0.95  0.95  
15          1.59  1.59  1.59  1.59  1.26  1.59  0.95  0.95  0.95  0.95  
16          1.59  1.59  1.59  1.59  1.26  1.59  0.95  0.95  0.95  0.95  
17          1.59  1.59  1.59  1.59  1.26  1.59  0.95  0.95  0.95  0.95  
18          1.59  1.59  1.59  1.59  1.26  1.59  0.95  0.95  0.95  0.95  
19          1.59  1.59  1.59  1.59  1.26  1.59  0.95  0.95  0.95  0.95  
20          1.59  1.59  1.59  1.59  1.26  1.59  0.95  0.95  0.95  0.95  
21          1.59  1.59  1.59  1.59  1.26  1.59  0.95  0.95  0.95  0.95  
22          1.59  1.59  1.59  1.59  1.26  1.59  0.95  0.95  0.95  0.95  
23          1.59  1.59  1.59  1.59  1.26  1.59  0.95  0.95  0.95  0.95  
24          1.59  1.59  1.59  1.59  1.26  1.59  0.95  0.95  0.95  0.95  
25          1.51  1.51  1.51  1.51  1.20  1.51  0.90  0.90  0.90  0.90  
26          1.51  1.51  1.51  1.51  1.20  1.51  0.90  0.90  0.90  0.90  
27          1.51  1.51  1.51  1.51  1.20  1.51  0.90  0.90  0.90  0.90  
28          1.51  1.51  1.51  1.51  1.20  1.51  0.90  0.90  0.90  0.90  
29          1.51  1.51  1.51  1.51  1.20  1.51  0.90  0.90  0.90  0.90  
30          1.51  1.51  1.51  1.51  1.20  1.51  0.90  0.90  0.90  0.90  
31          1.51  1.51  1.51  1.51  1.20  1.51  0.90  0.90  0.90  0.90  
32          1.51  1.51  1.51  1.51  1.20  1.51  0.90  0.90  0.90  0.90  
33          1.51  1.51  1.51  1.51  1.20  1.51  0.90  0.90  0.90  0.90  
34          1.59  1.59  1.59  1.59  1.26  1.59  0.95  0.95  0.95  0.95  
35          1.59  1.59  1.59  1.59  1.26  1.59  0.95  0.95  0.95  0.95  
36          1.59  1.59  1.59  1.59  1.26  1.59  0.95  0.95  0.95  0.95  
37          1.59  1.59  1.59  1.59  1.26  1.59  0.95  0.95  0.95  0.95  
38          1.59  1.59  1.59  1.59  1.26  1.59  0.95  0.95  0.95  0.95  
39          1.59  1.59  1.59  1.59  1.26  1.59  0.95  0.95  0.95  0.95  
40          1.59  1.59  1.59  1.59  1.26  1.59  0.95  0.95  0.95  0.95  
41          1.59  1.59  1.59  1.59  1.26  1.59  0.95  0.95  0.95  0.95  
42          1.59  1.59  1.59  1.59  1.26  1.59  0.95  0.95  0.95  0.95  
43          1.59  1.59  1.59  1.59  1.26  1.59  0.95  0.95  0.95  0.95  
44          1.59  1.59  1.59  1.59  1.26  1.59  0.95  0.95  0.95  0.95  
45          1.59  1.59  1.59  1.59  1.26  1.59  0.95  0.95  0.95  0.95  

[*,*,F3 ]:  K1    K2    K3    K4    K5    K6    K7    K8    K9    K10   :=
1           1.75  1.75  1.75  1.75  1.40  1.75  1.05  1.05  1.05  1.05  
2           1.75  1.75  1.75  1.75  1.40  1.75  1.05  1.05  1.05  1.05  
3           1.75  1.75  1.75  1.75  1.40  1.75  1.05  1.05  1.05  1.05  
4           1.75  1.75  1.75  1.75  1.40  1.75  1.05  1.05  1.05  1.05  
5           1.75  1.75  1.75  1.75  1.40  1.75  1.05  1.05  1.05  1.05  
6           1.75  1.75  1.75  1.75  1.40  1.75  1.05  1.05  1.05  1.05  
7           1.75  1.75  1.75  1.75  1.40  1.75  1.05  1.05  1.05  1.05  
8           1.75  1.75  1.75  1.75  1.40  1.75  1.05  1.05  1.05  1.05  
9           1.75  1.75  1.75  1.75  1.40  1.75  1.05  1.05  1.05  1.05  
10          1.75  1.75  1.75  1.75  1.40  1.75  1.05  1.05  1.05  1.05  
11          1.75  1.75  1.75  1.75  1.40  1.75  1.05  1.05  1.05  1.05  
12          1.75  1.75  1.75  1.75  1.40  1.75  1.05  1.05  1.05  1.05  
13          1.75  1.75  1.75  1.75  1.40  1.75  1.05  1.05  1.05  1.05  
14          1.75  1.75  1.75  1.75  1.40  1.75  1.05  1.05  1.05  1.05  
15          1.75  1.75  1.75  1.75  1.40  1.75  1.05  1.05  1.05  1.05  
16          1.75  1.75  1.75  1.75  1.40  1.75  1.05  1.05  1.05  1.05  
17          1.75  1.75  1.75  1.75  1.40  1.75  1.05  1.05  1.05  1.05  
18          1.75  1.75  1.75  1.75  1.40  1.75  1.05  1.05  1.05  1.05  
19          1.75  1.75  1.75  1.75  1.40  1.75  1.05  1.05  1.05  1.05  
20          1.75  1.75  1.75  1.75  1.40  1.75  1.05  1.05  1.05  1.05  
21          1.75  1.75  1.75  1.75  1.40  1.75  1.05  1.05  1.05  1.05  
22          1.75  1.75  1.75  1.75  1.40  1.75  1.05  1.05  1.05  1.05  
23          1.75  1.75  1.75  1.75  1.40  1.75  1.05  1.05  1.05  1.05  
24          1.75  1.75  1.75  1.75  1.40  1.75  1.05  1.05  1.05  1.05  
25          1.67  1.67  1.67  1.67  1.33  1.67  1.00  1.00  1.00  1.00  
26          1.67  1.67  1.67  1.67  1.33  1.67  1.00  1.00  1.00  1.00  
27          1.67  1.67  1.67  1.67  1.33  1.67  1.00  1.00  1.00  1.00  
28          1.67  1.67  1.67  1.67  1.33  1.67  1.00  1.00  1.00  1.00  
29          1.67  1.67  1.67  1.67  1.33  1.67  1.00  1.00  1.00  1.00  
30          1.67  1.67  1.67  1.67  1.33  1.67  1.00  1.00  1.00  1.00  
31          1.67  1.67  1.67  1.67  1.33  1.67  1.00  1.00  1.00  1.00  
32          1.67  1.67  1.67  1.67  1.33  1.67  1.00  1.00  1.00  1.00  
33          1.67  1.67  1.67  1.67  1.33  1.67  1.00  1.00  1.00  1.00  
34          1.75  1.75  1.75  1.75  1.40  1.75  1.05  1.05  1.05  1.05  
35          1.75  1.75  1.75  1.75  1.40  1.75  1.05  1.05  1.05  1.05  
36          1.75  1.75  1.75  1.75  1.40  1.75  1.05  1.05  1.05  1.05  
37          1.75  1.75  1.75  1.75  1.40  1.75  1.05  1.05  1.05  1.05  
38          1.75  1.75  1.75  1.75  1.40  1.75  1.05  1.05  1.05  1.05  
39          1.75  1.75  1.75  1.75  1.40  1.75  1.05  1.05  1.05  1.05  
40          1.75  1.75  1.75  1.75  1.40  1.75  1.05  1.05  1.05  1.05  
41          1.75  1.75  1.75  1.75  1.40  1.75  1.05  1.05  1.05  1.05  
42          1.75  1.75  1.75  1.75  1.40  1.75  1.05  1.05  1.05  1.05  
43          1.75  1.75  1.75  1.75  1.40  1.75  1.05  1.05  1.05  1.05  
44          1.75  1.75  1.75  1.75  1.40  1.75  1.05  1.05  1.05  1.05  
45          1.75  1.75  1.75  1.75  1.40  1.75  1.05  1.05  1.05  1.05  
; # downloads resource k can do at front f in time t if intermediate time slot

param E:= 

[*,*,F1 ]:  K1    K2    K3    K4    K5    K6    K7    K8    K9    K10   :=
1           0.89  0.08  0.32  0.22  0.52  0.52  0.38  0.20  0.27  0.18  
2           0.89  0.08  0.32  0.22  0.52  0.52  0.38  0.20  0.27  0.18  
3           0.89  0.08  0.32  0.22  0.52  0.52  0.38  0.20  0.27  0.18  
4           0.89  0.08  0.32  0.22  0.52  0.52  0.38  0.20  0.27  0.18  
5           0.89  0.08  0.32  0.22  0.52  0.52  0.38  0.20  0.27  0.18  
6           0.89  0.08  0.32  0.22  0.52  0.52  0.38  0.20  0.27  0.18  
7           0.89  0.08  0.32  0.22  0.52  0.52  0.38  0.20  0.27  0.18  
8           0.89  0.08  0.32  0.22  0.52  0.52  0.38  0.20  0.27  0.18  
9           0.89  0.08  0.32  0.22  0.52  0.52  0.38  0.20  0.27  0.18  
10          0.89  0.08  0.32  0.22  0.52  0.52  0.38  0.20  0.27  0.18  
11          0.89  0.08  0.32  0.22  0.52  0.52  0.38  0.20  0.27  0.18  
12          0.89  0.08  0.32  0.22  0.52  0.52  0.38  0.20  0.27  0.18  
13          0.89  0.08  0.32  0.22  0.52  0.52  0.38  0.20  0.27  0.18  
14          0.89  0.08  0.32  0.22  0.52  0.52  0.38  0.20  0.27  0.18  
15          0.89  0.08  0.32  0.22  0.52  0.52  0.38  0.20  0.27  0.18  
16          0.89  0.08  0.32  0.22  0.52  0.52  0.38  0.20  0.27  0.18  
17          0.89  0.08  0.32  0.22  0.52  0.52  0.38  0.20  0.27  0.18  
18          0.89  0.08  0.32  0.22  0.52  0.52  0.38  0.20  0.27  0.18  
19          0.89  0.08  0.32  0.22  0.52  0.52  0.38  0.20  0.27  0.18  
20          0.89  0.08  0.32  0.22  0.52  0.52  0.38  0.20  0.27  0.18  
21          0.89  0.08  0.32  0.22  0.52  0.52  0.38  0.20  0.27  0.18  
22          0.89  0.08  0.32  0.22  0.52  0.52  0.38  0.20  0.27  0.18  
23          0.89  0.08  0.32  0.22  0.52  0.52  0.38  0.20  0.27  0.18  
24          0.89  0.08  0.32  0.22  0.52  0.52  0.38  0.20  0.27  0.18  
25          0.85  0.08  0.30  0.21  0.50  0.49  0.36  0.19  0.26  0.17  
26          0.85  0.08  0.30  0.21  0.50  0.49  0.36  0.19  0.26  0.17  
27          0.85  0.08  0.30  0.21  0.50  0.49  0.36  0.19  0.26  0.17  
28          0.85  0.08  0.30  0.21  0.50  0.49  0.36  0.19  0.26  0.17  
29          0.85  0.08  0.30  0.21  0.50  0.49  0.36  0.19  0.26  0.17  
30          0.85  0.08  0.30  0.21  0.50  0.49  0.36  0.19  0.26  0.17  
31          0.85  0.08  0.30  0.21  0.50  0.49  0.36  0.19  0.26  0.17  
32          0.85  0.08  0.30  0.21  0.50  0.49  0.36  0.19  0.26  0.17  
33          0.85  0.08  0.30  0.21  0.50  0.49  0.36  0.19  0.26  0.17  
34          0.89  0.08  0.32  0.22  0.52  0.52  0.38  0.20  0.27  0.18  
35          0.89  0.08  0.32  0.22  0.52  0.52  0.38  0.20  0.27  0.18  
36          0.89  0.08  0.32  0.22  0.52  0.52  0.38  0.20  0.27  0.18  
37          0.89  0.08  0.32  0.22  0.52  0.52  0.38  0.20  0.27  0.18  
38          0.89  0.08  0.32  0.22  0.52  0.52  0.38  0.20  0.27  0.18  
39          0.89  0.08  0.32  0.22  0.52  0.52  0.38  0.20  0.27  0.18  
40          0.89  0.08  0.32  0.22  0.52  0.52  0.38  0.20  0.27  0.18  
41          0.89  0.08  0.32  0.22  0.52  0.52  0.38  0.20  0.27  0.18  
42          0.89  0.08  0.32  0.22  0.52  0.52  0.38  0.20  0.27  0.18  
43          0.89  0.08  0.32  0.22  0.52  0.52  0.38  0.20  0.27  0.18  
44          0.89  0.08  0.32  0.22  0.52  0.52  0.38  0.20  0.27  0.18  
45          0.89  0.08  0.32  0.22  0.52  0.52  0.38  0.20  0.27  0.18  

[*,*,F2 ]:  K1    K2    K3    K4    K5    K6    K7    K8    K9    K10   :=
1           0.76  0.06  0.32  0.21  0.44  0.44  0.28  0.14  0.25  0.16  
2           0.76  0.06  0.32  0.21  0.44  0.44  0.28  0.14  0.25  0.16  
3           0.76  0.06  0.32  0.21  0.44  0.44  0.28  0.14  0.25  0.16  
4           0.76  0.06  0.32  0.21  0.44  0.44  0.28  0.14  0.25  0.16  
5           0.76  0.06  0.32  0.21  0.44  0.44  0.28  0.14  0.25  0.16  
6           0.76  0.06  0.32  0.21  0.44  0.44  0.28  0.14  0.25  0.16  
7           0.76  0.06  0.32  0.21  0.44  0.44  0.28  0.14  0.25  0.16  
8           0.76  0.06  0.32  0.21  0.44  0.44  0.28  0.14  0.25  0.16  
9           0.76  0.06  0.32  0.21  0.44  0.44  0.28  0.14  0.25  0.16  
10          0.76  0.06  0.32  0.21  0.44  0.44  0.28  0.14  0.25  0.16  
11          0.76  0.06  0.32  0.21  0.44  0.44  0.28  0.14  0.25  0.16  
12          0.76  0.06  0.32  0.21  0.44  0.44  0.28  0.14  0.25  0.16  
13          0.76  0.06  0.32  0.21  0.44  0.44  0.28  0.14  0.25  0.16  
14          0.76  0.06  0.32  0.21  0.44  0.44  0.28  0.14  0.25  0.16  
15          0.76  0.06  0.32  0.21  0.44  0.44  0.28  0.14  0.25  0.16  
16          0.76  0.06  0.32  0.21  0.44  0.44  0.28  0.14  0.25  0.16  
17          0.76  0.06  0.32  0.21  0.44  0.44  0.28  0.14  0.25  0.16  
18          0.76  0.06  0.32  0.21  0.44  0.44  0.28  0.14  0.25  0.16  
19          0.76  0.06  0.32  0.21  0.44  0.44  0.28  0.14  0.25  0.16  
20          0.76  0.06  0.32  0.21  0.44  0.44  0.28  0.14  0.25  0.16  
21          0.76  0.06  0.32  0.21  0.44  0.44  0.28  0.14  0.25  0.16  
22          0.76  0.06  0.32  0.21  0.44  0.44  0.28  0.14  0.25  0.16  
23          0.76  0.06  0.32  0.21  0.44  0.44  0.28  0.14  0.25  0.16  
24          0.76  0.06  0.32  0.21  0.44  0.44  0.28  0.14  0.25  0.16  
25          0.72  0.06  0.30  0.20  0.42  0.42  0.27  0.14  0.23  0.15  
26          0.72  0.06  0.30  0.20  0.42  0.42  0.27  0.14  0.23  0.15  
27          0.72  0.06  0.30  0.20  0.42  0.42  0.27  0.14  0.23  0.15  
28          0.72  0.06  0.30  0.20  0.42  0.42  0.27  0.14  0.23  0.15  
29          0.72  0.06  0.30  0.20  0.42  0.42  0.27  0.14  0.23  0.15  
30          0.72  0.06  0.30  0.20  0.42  0.42  0.27  0.14  0.23  0.15  
31          0.72  0.06  0.30  0.20  0.42  0.42  0.27  0.14  0.23  0.15  
32          0.72  0.06  0.30  0.20  0.42  0.42  0.27  0.14  0.23  0.15  
33          0.72  0.06  0.30  0.20  0.42  0.42  0.27  0.14  0.23  0.15  
34          0.76  0.06  0.32  0.21  0.44  0.44  0.28  0.14  0.25  0.16  
35          0.76  0.06  0.32  0.21  0.44  0.44  0.28  0.14  0.25  0.16  
36          0.76  0.06  0.32  0.21  0.44  0.44  0.28  0.14  0.25  0.16  
37          0.76  0.06  0.32  0.21  0.44  0.44  0.28  0.14  0.25  0.16  
38          0.76  0.06  0.32  0.21  0.44  0.44  0.28  0.14  0.25  0.16  
39          0.76  0.06  0.32  0.21  0.44  0.44  0.28  0.14  0.25  0.16  
40          0.76  0.06  0.32  0.21  0.44  0.44  0.28  0.14  0.25  0.16  
41          0.76  0.06  0.32  0.21  0.44  0.44  0.28  0.14  0.25  0.16  
42          0.76  0.06  0.32  0.21  0.44  0.44  0.28  0.14  0.25  0.16  
43          0.76  0.06  0.32  0.21  0.44  0.44  0.28  0.14  0.25  0.16  
44          0.76  0.06  0.32  0.21  0.44  0.44  0.28  0.14  0.25  0.16  
45          0.76  0.06  0.32  0.21  0.44  0.44  0.28  0.14  0.25  0.16  

[*,*,F3 ]:  K1    K2    K3    K4    K5    K6    K7    K8    K9    K10   :=
1           0.86  0.11  0.37  0.19  0.38  0.37  0.37  0.21  0.24  0.14  
2           0.86  0.11  0.37  0.19  0.38  0.37  0.37  0.21  0.24  0.14  
3           0.86  0.11  0.37  0.19  0.38  0.37  0.37  0.21  0.24  0.14  
4           0.86  0.11  0.37  0.19  0.38  0.37  0.37  0.21  0.24  0.14  
5           0.86  0.11  0.37  0.19  0.38  0.37  0.37  0.21  0.24  0.14  
6           0.86  0.11  0.37  0.19  0.38  0.37  0.37  0.21  0.24  0.14  
7           0.86  0.11  0.37  0.19  0.38  0.37  0.37  0.21  0.24  0.14  
8           0.86  0.11  0.37  0.19  0.38  0.37  0.37  0.21  0.24  0.14  
9           0.86  0.11  0.37  0.19  0.38  0.37  0.37  0.21  0.24  0.14  
10          0.86  0.11  0.37  0.19  0.38  0.37  0.37  0.21  0.24  0.14  
11          0.86  0.11  0.37  0.19  0.38  0.37  0.37  0.21  0.24  0.14  
12          0.86  0.11  0.37  0.19  0.38  0.37  0.37  0.21  0.24  0.14  
13          0.86  0.11  0.37  0.19  0.38  0.37  0.37  0.21  0.24  0.14  
14          0.86  0.11  0.37  0.19  0.38  0.37  0.37  0.21  0.24  0.14  
15          0.86  0.11  0.37  0.19  0.38  0.37  0.37  0.21  0.24  0.14  
16          0.86  0.11  0.37  0.19  0.38  0.37  0.37  0.21  0.24  0.14  
17          0.86  0.11  0.37  0.19  0.38  0.37  0.37  0.21  0.24  0.14  
18          0.86  0.11  0.37  0.19  0.38  0.37  0.37  0.21  0.24  0.14  
19          0.86  0.11  0.37  0.19  0.38  0.37  0.37  0.21  0.24  0.14  
20          0.86  0.11  0.37  0.19  0.38  0.37  0.37  0.21  0.24  0.14  
21          0.86  0.11  0.37  0.19  0.38  0.37  0.37  0.21  0.24  0.14  
22          0.86  0.11  0.37  0.19  0.38  0.37  0.37  0.21  0.24  0.14  
23          0.86  0.11  0.37  0.19  0.38  0.37  0.37  0.21  0.24  0.14  
24          0.86  0.11  0.37  0.19  0.38  0.37  0.37  0.21  0.24  0.14  
25          0.82  0.10  0.35  0.18  0.36  0.35  0.35  0.20  0.23  0.13  
26          0.82  0.10  0.35  0.18  0.36  0.35  0.35  0.20  0.23  0.13  
27          0.82  0.10  0.35  0.18  0.36  0.35  0.35  0.20  0.23  0.13  
28          0.82  0.10  0.35  0.18  0.36  0.35  0.35  0.20  0.23  0.13  
29          0.82  0.10  0.35  0.18  0.36  0.35  0.35  0.20  0.23  0.13  
30          0.82  0.10  0.35  0.18  0.36  0.35  0.35  0.20  0.23  0.13  
31          0.82  0.10  0.35  0.18  0.36  0.35  0.35  0.20  0.23  0.13  
32          0.82  0.10  0.35  0.18  0.36  0.35  0.35  0.20  0.23  0.13  
33          0.82  0.10  0.35  0.18  0.36  0.35  0.35  0.20  0.23  0.13  
34          0.86  0.11  0.37  0.19  0.38  0.37  0.37  0.21  0.24  0.14  
35          0.86  0.11  0.37  0.19  0.38  0.37  0.37  0.21  0.24  0.14  
36          0.86  0.11  0.37  0.19  0.38  0.37  0.37  0.21  0.24  0.14  
37          0.86  0.11  0.37  0.19  0.38  0.37  0.37  0.21  0.24  0.14  
38          0.86  0.11  0.37  0.19  0.38  0.37  0.37  0.21  0.24  0.14  
39          0.86  0.11  0.37  0.19  0.38  0.37  0.37  0.21  0.24  0.14  
40          0.86  0.11  0.37  0.19  0.38  0.37  0.37  0.21  0.24  0.14  
41          0.86  0.11  0.37  0.19  0.38  0.37  0.37  0.21  0.24  0.14  
42          0.86  0.11  0.37  0.19  0.38  0.37  0.37  0.21  0.24  0.14  
43          0.86  0.11  0.37  0.19  0.38  0.37  0.37  0.21  0.24  0.14  
44          0.86  0.11  0.37  0.19  0.38  0.37  0.37  0.21  0.24  0.14  
45          0.86  0.11  0.37  0.19  0.38  0.37  0.37  0.21  0.24  0.14  
; # downloads resource k can do at front f in time t if starting or ending flight

param W: 
	F1        F2        F3        :=
1	246.11    123.06    123.06    
2	984.44    492.22    492.22    
3	984.44    492.22    492.22    
4	984.44    492.22    492.22    
5	984.44    492.22    492.22    
6	984.44    492.22    492.22    
7	984.44    492.22    492.22    
8	984.44    492.22    492.22    
9	984.44    492.22    492.22    
10	984.44    492.22    492.22    
11	984.44    492.22    492.22    
12	984.44    492.22    492.22    
13	984.44    492.22    492.22    
14	984.44    492.22    492.22    
15	984.44    492.22    492.22    
16	984.44    492.22    492.22    
17	984.44    492.22    492.22    
18	984.44    492.22    492.22    
19	984.44    492.22    492.22    
20	984.44    492.22    492.22    
21	984.44    492.22    492.22    
22	984.44    492.22    492.22    
23	984.44    492.22    492.22    
24	984.44    492.22    492.22    
25	984.44    492.22    492.22    
26	984.44    492.22    492.22    
27	984.44    492.22    492.22    
28	984.44    492.22    492.22    
29	984.44    492.22    492.22    
30	984.44    492.22    492.22    
31	984.44    492.22    492.22    
32	984.44    492.22    492.22    
33	984.44    492.22    492.22    
34	984.44    492.22    492.22    
35	984.44    492.22    492.22    
36	984.44    492.22    492.22    
37	984.44    492.22    492.22    
38	984.44    492.22    492.22    
39	984.44    492.22    492.22    
40	984.44    492.22    492.22    
41	984.44    492.22    492.22    
42	984.44    492.22    492.22    
43	984.44    492.22    492.22    
44	984.44    492.22    492.22    
45	246.11    123.06    123.06    
; # water needed at front f in time slot t

param M := 100000000; 

param a1:= 10000000;

param a2:= 100;

param a3:= 0.0001;
